37 37
27
3 3 25 34
3 4 34 33
3 5 28 32
3 6 34 27
3 7 34 20
3 8 31 29
3 9 34 11
3 11 34 0
3 12 31 17
3 13 25 21
3 14 28 18
3 17 31 0
3 18 28 0
3 21 25 0
4 3 17 34
4 4 21 33
4 5 21 28
4 6 21 22
4 10 17 24
4 22 21 0
4 24 17 0
5 3 12 34
5 4 12 30
5 6 12 24
5 10 12 14
5 14 12 0
12 37 0 0
